44226.7
62 70 23 147 129 2 6 43 60 58 110 105 15 64 3 59 53 5 145 44 86 12 54 1 84 16 98 39 141 65 57 114 123 126 121 37 51 146 88 131 137 91 22 9 96 49 101 107 10 71 128 106 82 19 103 136 33 67 133 0 56 119 135 26 69 112 134 127 52 30 116 28 74 95 140 27 125 4 34 97 32 102 76 24 100 66 20 142 90 85 14 50 144 7 149 42 79 122 38 78 36 45 104 124 118 113 93 61 89 72 29 46 41 108 68 80 138 18 55 63 48 139 40 75 13 148 47 132 94 115 17 117 8 120 83 77 92 87 21 35 11 73 81 111 31 25 109 143 99 130 
